% Logging successfully configured
%%%mzn-stat: initTime=0.014587502
%%%mzn-stat: objective=807
%%%mzn-stat: nodes=117
%%%mzn-stat: restarts=0
%%%mzn-stat: peakDepth=69
%%%mzn-stat: solveTime=0.007364512
%%%mzn-stat: variables=196
%%%mzn-stat: propagators=118
%%%mzn-stat: failures=47
%%%mzn-stat: propagations=1584
%%%mzn-stat: nogoods=47
%%%mzn-stat: numAtomicConstraintsPropagated=0
%%%mzn-stat: circuitNumber1PropagationsTotal=242
%%%mzn-stat: circuitNumber1CircuitConflicts=32
%%%mzn-stat: circuitNumber1AlldiffConflicts=0
%%%mzn-stat: circuitNumber1TotalFixedEdgesAtConflict=482
%%%mzn-stat: circuitNumber1NumberOfConflicts=32
%%%mzn-stat: circuitNumber1GacPrunings=480
%%%mzn-stat: circuitNumber1PropagationsThatGacPruned=134
%%%mzn-stat: circuitNumber1TotalPruningHallSetSize=1753
%%%mzn-stat: circuitNumber1NumberOfPruningExplanations=480
%%%mzn-stat: circuitNumber1MaxPruningHallSetSize=18
%%%mzn-stat: circuitNumber1TotalSccSizeAtPruning=1011
%%%mzn-stat: circuitNumber1NumberOfSccPruningCalls=134
%%%mzn-stat: circuitNumber1TotalVarsInvolvedInPruning=380
%%%mzn-stat: circuitNumber1MaxValuesPrunedFromSingleVar=4
%%%mzn-stat: circuitNumber1HallCircuitChecks=297
%%%mzn-stat: circuitNumber1HallCircuitPrunings=49
%%%mzn-stat: circuitNumber1CircuitPreventPrunings=102
%%%mzn-stat: AverageConflictSize=8.574468085106384
%%%mzn-stat: NumUnitNogoodsLearned=1
%%%mzn-stat: AverageLearnedNogoodLength=4.425531914893617
%%%mzn-stat: AverageBacktrackAmount=0
%%%mzn-stat: AverageLbd=3.425531914893617
%%%mzn-stat: 2AutonomousSearchNumBackupCalled=61
%%%mzn-stat: 2AutonomousSearchNumPredicatesRemoved=0
%%%mzn-stat: 2AutonomousSearchNumCalls=62
%%%mzn-stat: 2AutonomousSearchNumPredicatesAdded=508
%%%mzn-stat: 2AutonomousSearchAverageSizeOfHeap=8.193548387096774
%%%mzn-stat: 2AutonomousSearchNumAssignedPredicatesEncountered=508
%%%mzn-stat-end
maxleg = 807;
succ = array1d(1..20,[5, 4, 9, 11, 2, 15, 19, 10, 12, 18, 13, 17, 7, 8, 1, 20, 16, 6, 3, 14]);
% time elapsed: 14.76 s
----------
==========
% time elapsed: 14.76 s
%%%mzn-stat: initTime=0.014587502
%%%mzn-stat: objective=807
%%%mzn-stat: nodes=206
%%%mzn-stat: restarts=0
%%%mzn-stat: peakDepth=69
%%%mzn-stat: solveTime=0.022374379
%%%mzn-stat: variables=196
%%%mzn-stat: propagators=118
%%%mzn-stat: failures=137
%%%mzn-stat: propagations=4214
%%%mzn-stat: nogoods=137
%%%mzn-stat: numAtomicConstraintsPropagated=0
%%%mzn-stat: circuitNumber1PropagationsTotal=667
%%%mzn-stat: circuitNumber1CircuitConflicts=89
%%%mzn-stat: circuitNumber1AlldiffConflicts=2
%%%mzn-stat: circuitNumber1TotalFixedEdgesAtConflict=1388
%%%mzn-stat: circuitNumber1NumberOfConflicts=91
%%%mzn-stat: circuitNumber1GacPrunings=1343
%%%mzn-stat: circuitNumber1PropagationsThatGacPruned=377
%%%mzn-stat: circuitNumber1TotalPruningHallSetSize=4893
%%%mzn-stat: circuitNumber1NumberOfPruningExplanations=1343
%%%mzn-stat: circuitNumber1MaxPruningHallSetSize=18
%%%mzn-stat: circuitNumber1TotalSccSizeAtPruning=2860
%%%mzn-stat: circuitNumber1NumberOfSccPruningCalls=377
%%%mzn-stat: circuitNumber1TotalVarsInvolvedInPruning=1092
%%%mzn-stat: circuitNumber1MaxValuesPrunedFromSingleVar=4
%%%mzn-stat: circuitNumber1HallCircuitChecks=841
%%%mzn-stat: circuitNumber1HallCircuitPrunings=110
%%%mzn-stat: circuitNumber1CircuitPreventPrunings=278
%%%mzn-stat: AverageConflictSize=10.583941605839415
%%%mzn-stat: NumUnitNogoodsLearned=2
%%%mzn-stat: AverageLearnedNogoodLength=6.759124087591241
%%%mzn-stat: AverageBacktrackAmount=0
%%%mzn-stat: AverageLbd=4.175182481751825
%%%mzn-stat: 2AutonomousSearchNumBackupCalled=61
%%%mzn-stat: 2AutonomousSearchNumPredicatesRemoved=0
%%%mzn-stat: 2AutonomousSearchNumCalls=62
%%%mzn-stat: 2AutonomousSearchNumPredicatesAdded=1022
%%%mzn-stat: 2AutonomousSearchAverageSizeOfHeap=8.193548387096774
%%%mzn-stat: 2AutonomousSearchNumAssignedPredicatesEncountered=508
%%%mzn-stat-end
